#from Caballero, Grossmann (Design of distillation sequences: from conventional to fully thermally coupled distillation systems, Computers & Chemical Engineering)
#example 3 -reduced(2,3,5)

set C := 1, 2, 3;

param alpha := 1 3.6 2 2.1 3 1.0;
		